SOE/OptIsm/2024_11_27_ZH_Dalriada_setlist/dalriada.txt
Total popularity: 846

 1.:  0:00- 5:41	91	Galamb
 2.:  6:11-13:43	71	Taltosok_alma
 3.: 14:13-19:45	87	A_Dudas
 4.: 20:15-25:13	87	Hajdutanc
 5.: 25:43-31:33	100	Teli_enek
 6.: 32:03-38:27	90	Betyar_altato
 7.: 38:57-45:12	77	Huszaros
 8.: 45:42-50:24	86	Vilagfa
 9.: 50:54-56:45	87	Hamu_es_Gyasz
10.: 57:15-62:05	70	Virraszto
